{"lblp_lower": [271.5804843652666, 348.8040534981727, 354.88371794871784, 360.1725, 361.10470588235313, 362.20666666666676, 362.4000000000001], "cuttingPlaneBendInfo": [{"tot_cut_value": 0, "TOT_gen_cut": 0, "tot_time_opt": 0, "max_time_opt": 0}, {"tot_cut_value": 0, "TOT_gen_cut": 0, "tot_time_opt": 0, "max_time_opt": 0}, {"tot_cut_value": 0, "TOT_gen_cut": 0, "tot_time_opt": 0, "max_time_opt": 0}, {"tot_cut_value": 0, "TOT_gen_cut": 0, "tot_time_opt": 0, "max_time_opt": 0}, {"tot_cut_value": 0, "TOT_gen_cut": 0, "tot_time_opt": 0, "max_time_opt": 0}, {"tot_cut_value": 0, "TOT_gen_cut": 0, "tot_time_opt": 0, "max_time_opt": 0}, {"tot_cut_value": 0, "TOT_gen_cut": 0, "tot_time_opt": 13.018698453903198, "max_time_opt": 0.6018571853637695}], "time_compress": [0, 0, 0, 0, 0, 0, 0], "ub_lp": [450.50000000000017, 382.4000000000001, 382.4000000000001, 362.40000000000003, 362.40000000000003, 362.40000000000003, 362.40000000000003], "prob_sizes_at_start": [{"timeGraph": 72, "capGraph": 102, "ngGraph": 52}, {"timeGraph": 97, "capGraph": 174, "ngGraph": 78}, {"timeGraph": 99, "capGraph": 238, "ngGraph": 96}, {"timeGraph": 101, "capGraph": 292, "ngGraph": 123}, {"timeGraph": 107, "capGraph": 325, "ngGraph": 141}, {"timeGraph": 108, "capGraph": 366, "ngGraph": 140}, {"timeGraph": 109, "capGraph": 377, "ngGraph": 139}], "prob_sizes_after_compress": [{"timeGraph": 6, "capGraph": 38, "ngGraph": 11}, {"timeGraph": 18, "capGraph": 56, "ngGraph": 20}, {"timeGraph": 16, "capGraph": 123, "ngGraph": 30}, {"timeGraph": 24, "capGraph": 154, "ngGraph": 43}, {"timeGraph": 24, "capGraph": 199, "ngGraph": 42}, {"timeGraph": 26, "capGraph": 271, "ngGraph": 36}, {"timeGraph": 28, "capGraph": 295, "ngGraph": 37}], "prob_sizes_after_split": [{"timeGraph": 97, "capGraph": 174, "ngGraph": 78}, {"timeGraph": 99, "capGraph": 238, "ngGraph": 96}, {"timeGraph": 101, "capGraph": 292, "ngGraph": 123}, {"timeGraph": 107, "capGraph": 325, "ngGraph": 141}, {"timeGraph": 108, "capGraph": 366, "ngGraph": 140}, {"timeGraph": 109, "capGraph": 377, "ngGraph": 139}, {"timeGraph": 96, "capGraph": 346, "ngGraph": 90}], "did_compress": [true, true, true, true, true, true, true], "lp_time_project": [0.047039031982421875, 0.01648426055908203, 0.02025127410888672, 0.03221297264099121, 0.019361019134521484, 0.025121688842773438, 0.02544379234313965], "lp_time_LB": [0.09517097473144531, 0.22263598442077637, 0.5317230224609375, 0.7041993141174316, 1.1870489120483398, 1.2694997787475586, 1.2570579051971436], "ilp_time": [], "history_of_graphs_by_iter": [], "ROOT_LP_PRIOR_ADDING_CUTS": 362.4000000000001, "OUR_ilp_objective": 362.4000000000001, "OUR_MIP_Lower_Bound": 362.4000000000001, "OUR_ilp_time": 0.9601578712463379, "OUR_gurobi_MILP_str": "Gurobi Optimizer version 12.0.1 build v12.0.1rc0 (mac64[arm] - Darwin 24.5.0 24F74)\n\nCPU model: Apple M1\nThread count: 8 physical cores, 8 logical processors, using up to 8 threads\n\nNon-default parameters:\nTimeLimit  1000\n\nWLS license 2690165 - registered to Optym\nOptimize a model with 13666 rows, 26773 columns and 93013 nonzeros\nModel fingerprint: 0x029f49f9\nVariable types: 25131 continuous, 1642 integer (1642 binary)\nCoefficient statistics:\n  Matrix range     [1e-01, 6e+02]\n  Objective range  [1e+00, 6e+01]\n  Bounds range     [1e+00, 1e+03]\n  RHS range        [1e+00, 6e+02]\nPresolve removed 8238 rows and 7972 columns\nPresolve time: 0.17s\nPresolved: 5428 rows, 18801 columns, 125067 nonzeros\nVariable types: 17156 continuous, 1645 integer (1645 binary)\nFound heuristic solution: objective 2407.8000000\nFound heuristic solution: objective 2371.0000000\nFound heuristic solution: objective 2369.4000000\nDeterministic concurrent LP optimizer: primal and dual simplex\nShowing primal log only...\n\nConcurrent spin time: 0.12s (can be avoided by choosing Method=3)\n\nSolved with dual simplex\n\nRoot relaxation: objective 3.624000e+02, 7616 iterations, 0.69 seconds (1.22 work units)\n\n    Nodes    |    Current Node    |     Objective Bounds      |     Work\n Expl Unexpl |  Obj  Depth IntInf | Incumbent    BestBd   Gap | It/Node Time\n\n     0     0  362.40000    0    6 2369.40000  362.40000  84.7%     -    0s\nH    0     0                     362.4000000  362.40000  0.00%     -    0s\n     0     0  362.40000    0    6  362.40000  362.40000  0.00%     -    0s\n\nExplored 1 nodes (7616 simplex iterations) in 0.96 seconds (1.64 work units)\nThread count was 8 (of 8 available processors)\n\nSolution count 4: 362.4 2369.4 2371 2407.8 \n\nOptimal solution found (tolerance 1.00e-04)\nBest objective 3.624000000000e+02, best bound 3.624000000000e+02, gap 0.0000%\n", "jy_opt": {"ParetoEps": 1e-05, "turn_off_time_windows": false, "deactivate_time_graph": false, "deactivate_demand_graph": false, "epsilon": 0.0001, "weight_slack_projector": 1e-05, "weight_compress": 0.01, "num_cust_use": 50, "dem_step_sz": 1, "time_step_sz": 25, "use_compression": 1, "max_iterations_loop_compress_project": 100, "do_round_dist_times": 1, "my_shift_bet_time_win": 0.0001, "num_terms_per_bin_init_construct": 10, "allOneBig_init": 0, "min_inc_2_compress": 0.1, "save_graph_each_iter": 0, "use_Xpress": 0, "use_ineq": 1, "xpress_file_loc": "/Users/julian/Documents/FICO_Xpress_Config/xpauth.xpr", "run_baseline": 0, "verbose": 0, "use_NG_graph": 1, "num_NG": 5, "in_demo_mode": 0, "threshold_split": 0.01, "offset_cost_edge_project": 0, "use_classic_compress": 1, "use_classic_compress_last": 0, "num_thresh_split_projector": 10, "lplb_solver": 4, "compresss_solver": 0, "proj_solver": 4, "use_julians_custom_lp_solver": 0, "do_ilp": 1, "roundingDiscretization_num_digits_keep": 3, "doExrtraRemovalEdgesLB": 0, "use_gurobi": 1, "max_ILP_time": 1000, "use_fancy_ng_graph": 1, "use_dem_graph": 1, "use_time_graph": 1, "num_multiplys_demand": 0, "DEBUG_ALLOW_DUMB_EDGES": 0, "add_all_ng_split_at_end": 0, "do_split_based_init": 1, "think_compress": 0, "use_delta_in_milp": [1], "use_delta_in_lp": 1, "turn_off_non_active_fg_project": 0, "use_new_valid_ineq": 0, "digit_mult_use": 10, "use_branch_on_g": true, "LAB_MP_ON": 0, "LAB_MP_neigh_use_power": 10, "LAB_MP_num_ineq_use": 10, "do_remove_actions_from_incumbant": 1, "ub_use_remove": 2407.800999999998, "use_packing_in_construction": 1, "maxVarsAdd_in_ITER": 10, "use_ng_size_init": 0, "do_presolve": 0, "use_diving_ineq": 0, "BEND_MIN_LP_OBJECTIVE_CUT": 0.1, "BEND_USE_RAND": 0, "BEND_MAX_SIZE_CHOOSE_K": 260, "BEND_VAL_STOP_ADDING_CUTS": 100000000, "BEND_MY_SIZES_USE": [9], "NUMERICAL_BEND_OFFSET_COST_CUT": 0.0001, "NUMERICAL_BEND_EPSILON_MULT_PARETO_OBJ": 0.001, "NO_PARETO_NUMERICAL_BEND_OFFSET_COST_CUT": 0, "NO_PARETO_BEND_VAL_STOP_ADDING_CUTS": 1, "NO_PARETO_EPSILON_MAX_VAL_CON": 0.01, "BENDERS_NEIGH_SZ_USE": 9, "Actions_of_given_sol": [], "all_vars_binary": 0, "use_ng": 1, "restore_after_each_step": 1, "compress_solver": 1, "DEBUG_NG_turn_off_CLEAN": false, "max_nodes_split": Infinity}, "output_ilp_solution": {"act_0_51": 1, "act_1_0": 1, "act_2_6": 1, "act_3_1": 1, "act_4_2": 1, "act_5_3": 1, "act_6_7": 1, "act_7_9": 1, "act_8_5": 1, "act_9_10": 1, "act_10_8": 1, "act_11_51": 1, "act_12_16": 1, "act_13_11": 1, "act_14_15": 1, "act_15_13": 1, "act_16_17": 1, "act_17_18": 1, "act_18_14": 1, "act_19_23": 1, "act_20_51": 1, "act_21_20": 1, "act_22_21": 1, "act_23_24": 1, "act_24_26": 1, "act_25_22": 1, "act_26_28": 1, "act_27_25": 1, "act_28_29": 1, "act_29_27": 1, "act_30_34": 1, "act_31_32": 1, "act_32_30": 1, "act_33_51": 1, "act_34_36": 1, "act_35_33": 1, "act_36_37": 1, "act_37_38": 1, "act_38_35": 1, "act_39_43": 1, "act_40_39": 1, "act_41_40": 1, "act_42_41": 1, "act_43_45": 1, "act_44_47": 1, "act_45_44": 1, "act_46_51": 1, "act_47_49": 1, "act_48_46": 1, "act_49_48": 1, "act_50_4": 1, "act_50_12": 1, "act_50_19": 1, "act_50_31": 1, "act_50_42": 1}, "Actions_of_given_sol": "none just used source and sink terms", "actions_used": ["act_0_51", "act_1_0", "act_2_6", "act_3_1", "act_4_2", "act_5_3", "act_6_7", "act_7_9", "act_8_5", "act_9_10", "act_10_8", "act_11_51", "act_12_16", "act_13_11", "act_14_15", "act_15_13", "act_16_17", "act_17_18", "act_18_14", "act_19_23", "act_20_51", "act_21_20", "act_22_21", "act_23_24", "act_24_26", "act_25_22", "act_26_28", "act_27_25", "act_28_29", "act_29_27", "act_30_34", "act_31_32", "act_32_30", "act_33_51", "act_34_36", "act_35_33", "act_36_37", "act_37_38", "act_38_35", "act_39_43", "act_40_39", "act_41_40", "act_42_41", "act_43_45", "act_44_47", "act_45_44", "act_46_51", "act_47_49", "act_48_46", "act_49_48", "act_50_4", "act_50_12", "act_50_19", "act_50_31", "act_50_42"], "init_default_solution_is_empty": false, "objective_of_initial_sol": 2407.799999999998, "my_paths": "[[50, 4, 2, 6, 7, 9, 10, 8, 5, 3, 1, 0, 51], [50, 12, 16, 17, 18, 14, 15, 13, 11, 51], [50, 19, 23, 24, 26, 28, 29, 27, 25, 22, 21, 20, 51], [50, 31, 32, 30, 34, 36, 37, 38, 35, 33, 51], [50, 42, 41, 40, 39, 43, 45, 44, 47, 49, 48, 46, 51]]"}